c File: instances/28_0.25_3.col
c
c Description: Random graph of size 28 vertices and P(0.25) of edges between any two vertices.
p col 28 378
e 1 15
e 1 17
e 1 19
e 1 21
e 1 22
e 1 26
e 2 3
e 2 12
e 2 20
e 2 25
e 3 12
e 3 24
e 4 10
e 4 12
e 4 14
e 4 17
e 4 20
e 4 21
e 4 25
e 4 28
e 5 6
e 5 17
e 5 19
e 5 21
e 6 8
e 6 10
e 6 13
e 6 17
e 6 18
e 6 22
e 6 25
e 6 26
e 7 9
e 7 14
e 7 15
e 7 17
e 7 18
e 7 20
e 8 9
e 8 16
e 8 22
e 8 24
e 8 27
e 9 14
e 9 15
e 9 20
e 9 22
e 9 24
e 9 25
e 9 26
e 10 16
e 10 17
e 10 22
e 10 23
e 11 12
e 11 19
e 11 26
e 12 16
e 12 20
e 12 22
e 13 15
e 13 24
e 14 16
e 14 21
e 15 17
e 15 21
e 15 23
e 15 28
e 16 17
e 16 18
e 16 19
e 17 18
e 17 20
e 17 21
e 17 25
e 18 24
e 19 21
e 19 23
e 21 25
e 22 24
e 22 26